c Generated map
c Size: 8 * 8, weights in range: 1 to 10, walls: True, with ratio 0.1
c dim 6 of 9
c
p sp 64 91
c graph contains 64 nodes and 91 arcs
c
a 1 9 1
a 9 1 1
a 1 2 9
a 2 1 9
a 2 10 3
a 10 2 3
a 2 3 6
a 3 2 6
a 3 11 3
a 11 3 3
a 3 4 10
a 4 3 10
a 4 12 6
a 12 4 6
a 4 5 4
a 5 4 4
a 5 13 2
a 13 5 2
a 5 6 7
a 6 5 7
a 6 14 1
a 14 6 1
a 6 7 2
a 7 6 2
a 7 8 8
a 8 7 8
a 8 16 9
a 16 8 9
a 9 17 5
a 17 9 5
a 9 10 3
a 10 9 3
a 10 18 3
a 18 10 3
a 10 11 6
a 11 10 6
a 11 19 2
a 19 11 2
a 11 12 5
a 12 11 5
a 12 20 4
a 20 12 4
a 12 13 8
a 13 12 8
a 13 14 5
a 14 13 5
a 14 22 9
a 22 14 9
a 16 24 9
a 24 16 9
a 17 25 10
a 25 17 10
a 17 18 9
a 18 17 9
a 18 26 8
a 26 18 8
a 18 19 8
a 19 18 8
a 19 27 4
a 27 19 4
a 19 20 5
a 20 19 5
a 20 28 8
a 28 20 8
a 22 30 4
a 30 22 4
a 24 32 5
a 32 24 5
a 25 33 1
a 33 25 1
a 25 26 10
a 26 25 10
a 26 34 5
a 34 26 5
a 26 27 1
a 27 26 1
a 27 35 3
a 35 27 3
a 27 28 2
a 28 27 2
a 28 36 6
a 36 28 6
a 30 38 7
a 38 30 7
a 30 31 3
a 31 30 3
a 31 39 1
a 39 31 1
a 31 32 7
a 32 31 7
a 32 40 5
a 40 32 5
a 33 41 10
a 41 33 10
a 33 34 10
a 34 33 10
a 34 42 7
a 42 34 7
a 34 35 8
a 35 34 8
a 35 43 2
a 43 35 2
a 35 36 4
a 36 35 4
a 36 44 1
a 44 36 1
a 36 37 1
a 37 36 1
a 37 45 7
a 45 37 7
a 37 38 1
a 38 37 1
a 38 39 5
a 39 38 5
a 39 47 4
a 47 39 4
a 39 40 9
a 40 39 9
a 40 48 5
a 48 40 5
a 41 42 5
a 42 41 5
a 42 50 6
a 50 42 6
a 42 43 9
a 43 42 9
a 43 51 8
a 51 43 8
a 43 44 3
a 44 43 3
a 44 52 10
a 52 44 10
a 44 45 2
a 45 44 2
a 45 53 2
a 53 45 2
a 47 55 7
a 55 47 7
a 47 48 1
a 48 47 1
a 48 56 9
a 56 48 9
a 50 58 8
a 58 50 8
a 50 51 1
a 51 50 1
a 51 59 6
a 59 51 6
a 51 52 9
a 52 51 9
a 52 60 8
a 60 52 8
a 52 53 3
a 53 52 3
a 53 61 5
a 61 53 5
a 53 54 8
a 54 53 8
a 54 62 6
a 62 54 6
a 54 55 7
a 55 54 7
a 55 63 8
a 63 55 8
a 55 56 2
a 56 55 2
a 56 64 8
a 64 56 8
a 57 58 8
a 58 57 8
a 58 59 5
a 59 58 5
a 59 60 7
a 60 59 7
a 60 61 6
a 61 60 6
a 61 62 8
a 62 61 8
a 62 63 6
a 63 62 6
a 63 64 4
a 64 63 4
